p cnf 98 930

 c first condition 
 -1 -2 -3 0 
 -1 -2 -4 0 
 -1 -2 -5 0 
 -1 -2 -6 0 
 -1 -2 -7 0 
 -1 -3 -4 0 
 -1 -3 -5 0 
 -1 -3 -6 0 
 -1 -3 -7 0 
 -1 -4 -5 0 
 -1 -4 -6 0 
 -1 -4 -7 0 
 -1 -5 -6 0 
 -1 -5 -7 0 
 -1 -6 -7 0 
 -2 -3 -4 0 
 -2 -3 -5 0 
 -2 -3 -6 0 
 -2 -3 -7 0 
 -2 -4 -5 0 
 -2 -4 -6 0 
 -2 -4 -7 0 
 -2 -5 -6 0 
 -2 -5 -7 0 
 -2 -6 -7 0 
 -3 -4 -5 0 
 -3 -4 -6 0 
 -3 -4 -7 0 
 -3 -5 -6 0 
 -3 -5 -7 0 
 -3 -6 -7 0 
 -4 -5 -6 0 
 -4 -5 -7 0 
 -4 -6 -7 0 
 -5 -6 -7 0 

 c second condition 
 2 3 4 5 6 7 0 
 1 3 4 5 6 7 0 
 1 2 4 5 6 7 0 
 1 2 3 5 6 7 0 
 1 2 3 4 6 7 0 
 1 2 3 4 5 7 0 
 1 2 3 4 5 6 0 

 c third condition 
 -1 -8 -9 0 
 -1 -8 -10 0 
 -1 -8 -11 0 
 -1 -8 -12 0 
 -1 -8 -13 0 
 -1 -9 -10 0 
 -1 -9 -11 0 
 -1 -9 -12 0 
 -1 -9 -13 0 
 -1 -10 -11 0 
 -1 -10 -12 0 
 -1 -10 -13 0 
 -1 -11 -12 0 
 -1 -11 -13 0 
 -1 -12 -13 0 
 -2 -14 -15 0 
 -2 -14 -16 0 
 -2 -14 -17 0 
 -2 -14 -18 0 
 -2 -14 -19 0 
 -2 -15 -16 0 
 -2 -15 -17 0 
 -2 -15 -18 0 
 -2 -15 -19 0 
 -2 -16 -17 0 
 -2 -16 -18 0 
 -2 -16 -19 0 
 -2 -17 -18 0 
 -2 -17 -19 0 
 -2 -18 -19 0 
 -3 -20 -21 0 
 -3 -20 -22 0 
 -3 -20 -23 0 
 -3 -20 -24 0 
 -3 -20 -25 0 
 -3 -21 -22 0 
 -3 -21 -23 0 
 -3 -21 -24 0 
 -3 -21 -25 0 
 -3 -22 -23 0 
 -3 -22 -24 0 
 -3 -22 -25 0 
 -3 -23 -24 0 
 -3 -23 -25 0 
 -3 -24 -25 0 
 -4 -26 -27 0 
 -4 -26 -28 0 
 -4 -26 -29 0 
 -4 -26 -30 0 
 -4 -26 -31 0 
 -4 -27 -28 0 
 -4 -27 -29 0 
 -4 -27 -30 0 
 -4 -27 -31 0 
 -4 -28 -29 0 
 -4 -28 -30 0 
 -4 -28 -31 0 
 -4 -29 -30 0 
 -4 -29 -31 0 
 -4 -30 -31 0 
 -5 -32 -33 0 
 -5 -32 -34 0 
 -5 -32 -35 0 
 -5 -32 -36 0 
 -5 -32 -37 0 
 -5 -33 -34 0 
 -5 -33 -35 0 
 -5 -33 -36 0 
 -5 -33 -37 0 
 -5 -34 -35 0 
 -5 -34 -36 0 
 -5 -34 -37 0 
 -5 -35 -36 0 
 -5 -35 -37 0 
 -5 -36 -37 0 
 -6 -38 -39 0 
 -6 -38 -40 0 
 -6 -38 -41 0 
 -6 -38 -42 0 
 -6 -38 -43 0 
 -6 -39 -40 0 
 -6 -39 -41 0 
 -6 -39 -42 0 
 -6 -39 -43 0 
 -6 -40 -41 0 
 -6 -40 -42 0 
 -6 -40 -43 0 
 -6 -41 -42 0 
 -6 -41 -43 0 
 -6 -42 -43 0 
 -7 -44 -45 0 
 -7 -44 -46 0 
 -7 -44 -47 0 
 -7 -44 -48 0 
 -7 -44 -49 0 
 -7 -45 -46 0 
 -7 -45 -47 0 
 -7 -45 -48 0 
 -7 -45 -49 0 
 -7 -46 -47 0 
 -7 -46 -48 0 
 -7 -46 -49 0 
 -7 -47 -48 0 
 -7 -47 -49 0 
 -7 -48 -49 0 
 -8 -9 -10 0 
 -8 -9 -11 0 
 -8 -9 -12 0 
 -8 -9 -13 0 
 -8 -10 -11 0 
 -8 -10 -12 0 
 -8 -10 -13 0 
 -8 -11 -12 0 
 -8 -11 -13 0 
 -8 -12 -13 0 
 -9 -10 -11 0 
 -9 -10 -12 0 
 -9 -10 -13 0 
 -9 -11 -12 0 
 -9 -11 -13 0 
 -9 -12 -13 0 
 -10 -11 -12 0 
 -10 -11 -13 0 
 -10 -12 -13 0 
 -11 -12 -13 0 
 -14 -15 -16 0 
 -14 -15 -17 0 
 -14 -15 -18 0 
 -14 -15 -19 0 
 -14 -16 -17 0 
 -14 -16 -18 0 
 -14 -16 -19 0 
 -14 -17 -18 0 
 -14 -17 -19 0 
 -14 -18 -19 0 
 -15 -16 -17 0 
 -15 -16 -18 0 
 -15 -16 -19 0 
 -15 -17 -18 0 
 -15 -17 -19 0 
 -15 -18 -19 0 
 -16 -17 -18 0 
 -16 -17 -19 0 
 -16 -18 -19 0 
 -17 -18 -19 0 
 -20 -21 -22 0 
 -20 -21 -23 0 
 -20 -21 -24 0 
 -20 -21 -25 0 
 -20 -22 -23 0 
 -20 -22 -24 0 
 -20 -22 -25 0 
 -20 -23 -24 0 
 -20 -23 -25 0 
 -20 -24 -25 0 
 -21 -22 -23 0 
 -21 -22 -24 0 
 -21 -22 -25 0 
 -21 -23 -24 0 
 -21 -23 -25 0 
 -21 -24 -25 0 
 -22 -23 -24 0 
 -22 -23 -25 0 
 -22 -24 -25 0 
 -23 -24 -25 0 
 -26 -27 -28 0 
 -26 -27 -29 0 
 -26 -27 -30 0 
 -26 -27 -31 0 
 -26 -28 -29 0 
 -26 -28 -30 0 
 -26 -28 -31 0 
 -26 -29 -30 0 
 -26 -29 -31 0 
 -26 -30 -31 0 
 -27 -28 -29 0 
 -27 -28 -30 0 
 -27 -28 -31 0 
 -27 -29 -30 0 
 -27 -29 -31 0 
 -27 -30 -31 0 
 -28 -29 -30 0 
 -28 -29 -31 0 
 -28 -30 -31 0 
 -29 -30 -31 0 
 -32 -33 -34 0 
 -32 -33 -35 0 
 -32 -33 -36 0 
 -32 -33 -37 0 
 -32 -34 -35 0 
 -32 -34 -36 0 
 -32 -34 -37 0 
 -32 -35 -36 0 
 -32 -35 -37 0 
 -32 -36 -37 0 
 -33 -34 -35 0 
 -33 -34 -36 0 
 -33 -34 -37 0 
 -33 -35 -36 0 
 -33 -35 -37 0 
 -33 -36 -37 0 
 -34 -35 -36 0 
 -34 -35 -37 0 
 -34 -36 -37 0 
 -35 -36 -37 0 
 -38 -39 -40 0 
 -38 -39 -41 0 
 -38 -39 -42 0 
 -38 -39 -43 0 
 -38 -40 -41 0 
 -38 -40 -42 0 
 -38 -40 -43 0 
 -38 -41 -42 0 
 -38 -41 -43 0 
 -38 -42 -43 0 
 -39 -40 -41 0 
 -39 -40 -42 0 
 -39 -40 -43 0 
 -39 -41 -42 0 
 -39 -41 -43 0 
 -39 -42 -43 0 
 -40 -41 -42 0 
 -40 -41 -43 0 
 -40 -42 -43 0 
 -41 -42 -43 0 
 -44 -45 -46 0 
 -44 -45 -47 0 
 -44 -45 -48 0 
 -44 -45 -49 0 
 -44 -46 -47 0 
 -44 -46 -48 0 
 -44 -46 -49 0 
 -44 -47 -48 0 
 -44 -47 -49 0 
 -44 -48 -49 0 
 -45 -46 -47 0 
 -45 -46 -48 0 
 -45 -46 -49 0 
 -45 -47 -48 0 
 -45 -47 -49 0 
 -45 -48 -49 0 
 -46 -47 -48 0 
 -46 -47 -49 0 
 -46 -48 -49 0 
 -47 -48 -49 0 

 c fourth condition 
 8 9 10 11 12 13 0 
 1 9 10 11 12 13 0 
 1 8 10 11 12 13 0 
 1 8 9 11 12 13 0 
 1 8 9 10 12 13 0 
 1 8 9 10 11 13 0 
 1 8 9 10 11 12 0 
 14 15 16 17 18 19 0 
 2 15 16 17 18 19 0 
 2 14 16 17 18 19 0 
 2 14 15 17 18 19 0 
 2 14 15 16 18 19 0 
 2 14 15 16 17 19 0 
 2 14 15 16 17 18 0 
 20 21 22 23 24 25 0 
 3 21 22 23 24 25 0 
 3 20 22 23 24 25 0 
 3 20 21 23 24 25 0 
 3 20 21 22 24 25 0 
 3 20 21 22 23 25 0 
 3 20 21 22 23 24 0 
 26 27 28 29 30 31 0 
 4 27 28 29 30 31 0 
 4 26 28 29 30 31 0 
 4 26 27 29 30 31 0 
 4 26 27 28 30 31 0 
 4 26 27 28 29 31 0 
 4 26 27 28 29 30 0 
 32 33 34 35 36 37 0 
 5 33 34 35 36 37 0 
 5 32 34 35 36 37 0 
 5 32 33 35 36 37 0 
 5 32 33 34 36 37 0 
 5 32 33 34 35 37 0 
 5 32 33 34 35 36 0 
 38 39 40 41 42 43 0 
 6 39 40 41 42 43 0 
 6 38 40 41 42 43 0 
 6 38 39 41 42 43 0 
 6 38 39 40 42 43 0 
 6 38 39 40 41 43 0 
 6 38 39 40 41 42 0 
 44 45 46 47 48 49 0 
 7 45 46 47 48 49 0 
 7 44 46 47 48 49 0 
 7 44 45 47 48 49 0 
 7 44 45 46 48 49 0 
 7 44 45 46 47 49 0 
 7 44 45 46 47 48 0 

 c fifth condition 
 -1 -2 -8 0 
 -1 -3 -9 0 
 -1 -4 -10 0 
 -1 -5 -11 0 
 -1 -6 -12 0 
 -1 -7 -13 0 
 -2 -3 -15 0 
 -2 -4 -16 0 
 -2 -5 -17 0 
 -2 -6 -18 0 
 -2 -7 -19 0 
 -3 -4 -22 0 
 -3 -5 -23 0 
 -3 -6 -24 0 
 -3 -7 -25 0 
 -4 -5 -29 0 
 -4 -6 -30 0 
 -4 -7 -31 0 
 -5 -6 -36 0 
 -5 -7 -37 0 
 -6 -7 -43 0 

 c sixth condition 
 -8 14 0 
 -14 8 0 
 -9 20 0 
 -20 9 0 
 -10 26 0 
 -26 10 0 
 -11 32 0 
 -32 11 0 
 -12 38 0 
 -38 12 0 
 -13 44 0 
 -44 13 0 
 -15 21 0 
 -21 15 0 
 -16 27 0 
 -27 16 0 
 -17 33 0 
 -33 17 0 
 -18 39 0 
 -39 18 0 
 -19 45 0 
 -45 19 0 
 -22 28 0 
 -28 22 0 
 -23 34 0 
 -34 23 0 
 -24 40 0 
 -40 24 0 
 -25 46 0 
 -46 25 0 
 -29 35 0 
 -35 29 0 
 -30 41 0 
 -41 30 0 
 -31 47 0 
 -47 31 0 
 -36 42 0 
 -42 36 0 
 -37 48 0 
 -48 37 0 
 -43 49 0 
 -49 43 0 

 c seventh condition 
 -50 -51 0 
 -50 -52 0 
 -50 -53 0 
 -50 -54 0 
 -50 -55 0 
 -50 -56 0 
 -51 -52 0 
 -51 -53 0 
 -51 -54 0 
 -51 -55 0 
 -51 -56 0 
 -52 -53 0 
 -52 -54 0 
 -52 -55 0 
 -52 -56 0 
 -53 -54 0 
 -53 -55 0 
 -53 -56 0 
 -54 -55 0 
 -54 -56 0 
 -55 -56 0 
 -57 -58 0 
 -57 -59 0 
 -57 -60 0 
 -57 -61 0 
 -57 -62 0 
 -57 -63 0 
 -58 -59 0 
 -58 -60 0 
 -58 -61 0 
 -58 -62 0 
 -58 -63 0 
 -59 -60 0 
 -59 -61 0 
 -59 -62 0 
 -59 -63 0 
 -60 -61 0 
 -60 -62 0 
 -60 -63 0 
 -61 -62 0 
 -61 -63 0 
 -62 -63 0 
 -64 -65 0 
 -64 -66 0 
 -64 -67 0 
 -64 -68 0 
 -64 -69 0 
 -64 -70 0 
 -65 -66 0 
 -65 -67 0 
 -65 -68 0 
 -65 -69 0 
 -65 -70 0 
 -66 -67 0 
 -66 -68 0 
 -66 -69 0 
 -66 -70 0 
 -67 -68 0 
 -67 -69 0 
 -67 -70 0 
 -68 -69 0 
 -68 -70 0 
 -69 -70 0 
 -71 -72 0 
 -71 -73 0 
 -71 -74 0 
 -71 -75 0 
 -71 -76 0 
 -71 -77 0 
 -72 -73 0 
 -72 -74 0 
 -72 -75 0 
 -72 -76 0 
 -72 -77 0 
 -73 -74 0 
 -73 -75 0 
 -73 -76 0 
 -73 -77 0 
 -74 -75 0 
 -74 -76 0 
 -74 -77 0 
 -75 -76 0 
 -75 -77 0 
 -76 -77 0 
 -78 -79 0 
 -78 -80 0 
 -78 -81 0 
 -78 -82 0 
 -78 -83 0 
 -78 -84 0 
 -79 -80 0 
 -79 -81 0 
 -79 -82 0 
 -79 -83 0 
 -79 -84 0 
 -80 -81 0 
 -80 -82 0 
 -80 -83 0 
 -80 -84 0 
 -81 -82 0 
 -81 -83 0 
 -81 -84 0 
 -82 -83 0 
 -82 -84 0 
 -83 -84 0 
 -85 -86 0 
 -85 -87 0 
 -85 -88 0 
 -85 -89 0 
 -85 -90 0 
 -85 -91 0 
 -86 -87 0 
 -86 -88 0 
 -86 -89 0 
 -86 -90 0 
 -86 -91 0 
 -87 -88 0 
 -87 -89 0 
 -87 -90 0 
 -87 -91 0 
 -88 -89 0 
 -88 -90 0 
 -88 -91 0 
 -89 -90 0 
 -89 -91 0 
 -90 -91 0 
 -92 -93 0 
 -92 -94 0 
 -92 -95 0 
 -92 -96 0 
 -92 -97 0 
 -92 -98 0 
 -93 -94 0 
 -93 -95 0 
 -93 -96 0 
 -93 -97 0 
 -93 -98 0 
 -94 -95 0 
 -94 -96 0 
 -94 -97 0 
 -94 -98 0 
 -95 -96 0 
 -95 -97 0 
 -95 -98 0 
 -96 -97 0 
 -96 -98 0 
 -97 -98 0 

 c eighth condition 
 50 51 52 53 54 55 56 0 
 50 51 52 53 54 55 56 0 
 50 51 52 53 54 55 56 0 
 50 51 52 53 54 55 56 0 
 50 51 52 53 54 55 56 0 
 50 51 52 53 54 55 56 0 
 50 51 52 53 54 55 56 0 
 57 58 59 60 61 62 63 0 
 57 58 59 60 61 62 63 0 
 57 58 59 60 61 62 63 0 
 57 58 59 60 61 62 63 0 
 57 58 59 60 61 62 63 0 
 57 58 59 60 61 62 63 0 
 57 58 59 60 61 62 63 0 
 64 65 66 67 68 69 70 0 
 64 65 66 67 68 69 70 0 
 64 65 66 67 68 69 70 0 
 64 65 66 67 68 69 70 0 
 64 65 66 67 68 69 70 0 
 64 65 66 67 68 69 70 0 
 64 65 66 67 68 69 70 0 
 71 72 73 74 75 76 77 0 
 71 72 73 74 75 76 77 0 
 71 72 73 74 75 76 77 0 
 71 72 73 74 75 76 77 0 
 71 72 73 74 75 76 77 0 
 71 72 73 74 75 76 77 0 
 71 72 73 74 75 76 77 0 
 78 79 80 81 82 83 84 0 
 78 79 80 81 82 83 84 0 
 78 79 80 81 82 83 84 0 
 78 79 80 81 82 83 84 0 
 78 79 80 81 82 83 84 0 
 78 79 80 81 82 83 84 0 
 78 79 80 81 82 83 84 0 
 85 86 87 88 89 90 91 0 
 85 86 87 88 89 90 91 0 
 85 86 87 88 89 90 91 0 
 85 86 87 88 89 90 91 0 
 85 86 87 88 89 90 91 0 
 85 86 87 88 89 90 91 0 
 85 86 87 88 89 90 91 0 
 92 93 94 95 96 97 98 0 
 92 93 94 95 96 97 98 0 
 92 93 94 95 96 97 98 0 
 92 93 94 95 96 97 98 0 
 92 93 94 95 96 97 98 0 
 92 93 94 95 96 97 98 0 
 92 93 94 95 96 97 98 0 

 c ninth condition 
 -50 -57 0 
 -50 -64 0 
 -50 -71 0 
 -50 -78 0 
 -50 -85 0 
 -50 -92 0 
 -51 -58 0 
 -51 -65 0 
 -51 -72 0 
 -51 -79 0 
 -51 -86 0 
 -51 -93 0 
 -52 -59 0 
 -52 -66 0 
 -52 -73 0 
 -52 -80 0 
 -52 -87 0 
 -52 -94 0 
 -53 -60 0 
 -53 -67 0 
 -53 -74 0 
 -53 -81 0 
 -53 -88 0 
 -53 -95 0 
 -54 -61 0 
 -54 -68 0 
 -54 -75 0 
 -54 -82 0 
 -54 -89 0 
 -54 -96 0 
 -55 -62 0 
 -55 -69 0 
 -55 -76 0 
 -55 -83 0 
 -55 -90 0 
 -55 -97 0 
 -56 -63 0 
 -56 -70 0 
 -56 -77 0 
 -56 -84 0 
 -56 -91 0 
 -56 -98 0 
 -57 -64 0 
 -57 -71 0 
 -57 -78 0 
 -57 -85 0 
 -57 -92 0 
 -58 -65 0 
 -58 -72 0 
 -58 -79 0 
 -58 -86 0 
 -58 -93 0 
 -59 -66 0 
 -59 -73 0 
 -59 -80 0 
 -59 -87 0 
 -59 -94 0 
 -60 -67 0 
 -60 -74 0 
 -60 -81 0 
 -60 -88 0 
 -60 -95 0 
 -61 -68 0 
 -61 -75 0 
 -61 -82 0 
 -61 -89 0 
 -61 -96 0 
 -62 -69 0 
 -62 -76 0 
 -62 -83 0 
 -62 -90 0 
 -62 -97 0 
 -63 -70 0 
 -63 -77 0 
 -63 -84 0 
 -63 -91 0 
 -63 -98 0 
 -64 -71 0 
 -64 -78 0 
 -64 -85 0 
 -64 -92 0 
 -65 -72 0 
 -65 -79 0 
 -65 -86 0 
 -65 -93 0 
 -66 -73 0 
 -66 -80 0 
 -66 -87 0 
 -66 -94 0 
 -67 -74 0 
 -67 -81 0 
 -67 -88 0 
 -67 -95 0 
 -68 -75 0 
 -68 -82 0 
 -68 -89 0 
 -68 -96 0 
 -69 -76 0 
 -69 -83 0 
 -69 -90 0 
 -69 -97 0 
 -70 -77 0 
 -70 -84 0 
 -70 -91 0 
 -70 -98 0 
 -71 -78 0 
 -71 -85 0 
 -71 -92 0 
 -72 -79 0 
 -72 -86 0 
 -72 -93 0 
 -73 -80 0 
 -73 -87 0 
 -73 -94 0 
 -74 -81 0 
 -74 -88 0 
 -74 -95 0 
 -75 -82 0 
 -75 -89 0 
 -75 -96 0 
 -76 -83 0 
 -76 -90 0 
 -76 -97 0 
 -77 -84 0 
 -77 -91 0 
 -77 -98 0 
 -78 -85 0 
 -78 -92 0 
 -79 -86 0 
 -79 -93 0 
 -80 -87 0 
 -80 -94 0 
 -81 -88 0 
 -81 -95 0 
 -82 -89 0 
 -82 -96 0 
 -83 -90 0 
 -83 -97 0 
 -84 -91 0 
 -84 -98 0 
 -85 -92 0 
 -86 -93 0 
 -87 -94 0 
 -88 -95 0 
 -89 -96 0 
 -90 -97 0 
 -91 -98 0 

 c tenth condition 
 -1 -51 0 
 -1 -52 0 
 -1 -53 0 
 -1 -54 0 
 -1 -55 0 
 -2 -58 0 
 -2 -59 0 
 -2 -60 0 
 -2 -61 0 
 -2 -62 0 
 -3 -65 0 
 -3 -66 0 
 -3 -67 0 
 -3 -68 0 
 -3 -69 0 
 -4 -72 0 
 -4 -73 0 
 -4 -74 0 
 -4 -75 0 
 -4 -76 0 
 -5 -79 0 
 -5 -80 0 
 -5 -81 0 
 -5 -82 0 
 -5 -83 0 
 -6 -86 0 
 -6 -87 0 
 -6 -88 0 
 -6 -89 0 
 -6 -90 0 
 -7 -93 0 
 -7 -94 0 
 -7 -95 0 
 -7 -96 0 
 -7 -97 0 

 c eleventh condition 
 -8 -50 58 0 
 -8 -51 57 59 0 
 -8 -52 58 60 0 
 -8 -53 59 61 0 
 -8 -54 60 62 0 
 -8 -55 61 63 0 
 -8 -56 62 0 
 -9 -50 65 0 
 -9 -51 64 66 0 
 -9 -52 65 67 0 
 -9 -53 66 68 0 
 -9 -54 67 69 0 
 -9 -55 68 70 0 
 -9 -56 69 0 
 -10 -50 72 0 
 -10 -51 71 73 0 
 -10 -52 72 74 0 
 -10 -53 73 75 0 
 -10 -54 74 76 0 
 -10 -55 75 77 0 
 -10 -56 76 0 
 -11 -50 79 0 
 -11 -51 78 80 0 
 -11 -52 79 81 0 
 -11 -53 80 82 0 
 -11 -54 81 83 0 
 -11 -55 82 84 0 
 -11 -56 83 0 
 -12 -50 86 0 
 -12 -51 85 87 0 
 -12 -52 86 88 0 
 -12 -53 87 89 0 
 -12 -54 88 90 0 
 -12 -55 89 91 0 
 -12 -56 90 0 
 -13 -50 93 0 
 -13 -51 92 94 0 
 -13 -52 93 95 0 
 -13 -53 94 96 0 
 -13 -54 95 97 0 
 -13 -55 96 98 0 
 -13 -56 97 0 
 -15 -57 65 0 
 -15 -58 64 66 0 
 -15 -59 65 67 0 
 -15 -60 66 68 0 
 -15 -61 67 69 0 
 -15 -62 68 70 0 
 -15 -63 69 0 
 -16 -57 72 0 
 -16 -58 71 73 0 
 -16 -59 72 74 0 
 -16 -60 73 75 0 
 -16 -61 74 76 0 
 -16 -62 75 77 0 
 -16 -63 76 0 
 -17 -57 79 0 
 -17 -58 78 80 0 
 -17 -59 79 81 0 
 -17 -60 80 82 0 
 -17 -61 81 83 0 
 -17 -62 82 84 0 
 -17 -63 83 0 
 -18 -57 86 0 
 -18 -58 85 87 0 
 -18 -59 86 88 0 
 -18 -60 87 89 0 
 -18 -61 88 90 0 
 -18 -62 89 91 0 
 -18 -63 90 0 
 -19 -57 93 0 
 -19 -58 92 94 0 
 -19 -59 93 95 0 
 -19 -60 94 96 0 
 -19 -61 95 97 0 
 -19 -62 96 98 0 
 -19 -63 97 0 
 -22 -64 72 0 
 -22 -65 71 73 0 
 -22 -66 72 74 0 
 -22 -67 73 75 0 
 -22 -68 74 76 0 
 -22 -69 75 77 0 
 -22 -70 76 0 
 -23 -64 79 0 
 -23 -65 78 80 0 
 -23 -66 79 81 0 
 -23 -67 80 82 0 
 -23 -68 81 83 0 
 -23 -69 82 84 0 
 -23 -70 83 0 
 -24 -64 86 0 
 -24 -65 85 87 0 
 -24 -66 86 88 0 
 -24 -67 87 89 0 
 -24 -68 88 90 0 
 -24 -69 89 91 0 
 -24 -70 90 0 
 -25 -64 93 0 
 -25 -65 92 94 0 
 -25 -66 93 95 0 
 -25 -67 94 96 0 
 -25 -68 95 97 0 
 -25 -69 96 98 0 
 -25 -70 97 0 
 -29 -71 79 0 
 -29 -72 78 80 0 
 -29 -73 79 81 0 
 -29 -74 80 82 0 
 -29 -75 81 83 0 
 -29 -76 82 84 0 
 -29 -77 83 0 
 -30 -71 86 0 
 -30 -72 85 87 0 
 -30 -73 86 88 0 
 -30 -74 87 89 0 
 -30 -75 88 90 0 
 -30 -76 89 91 0 
 -30 -77 90 0 
 -31 -71 93 0 
 -31 -72 92 94 0 
 -31 -73 93 95 0 
 -31 -74 94 96 0 
 -31 -75 95 97 0 
 -31 -76 96 98 0 
 -31 -77 97 0 
 -36 -78 86 0 
 -36 -79 85 87 0 
 -36 -80 86 88 0 
 -36 -81 87 89 0 
 -36 -82 88 90 0 
 -36 -83 89 91 0 
 -36 -84 90 0 
 -37 -78 93 0 
 -37 -79 92 94 0 
 -37 -80 93 95 0 
 -37 -81 94 96 0 
 -37 -82 95 97 0 
 -37 -83 96 98 0 
 -37 -84 97 0 
 -43 -85 93 0 
 -43 -86 92 94 0 
 -43 -87 93 95 0 
 -43 -88 94 96 0 
 -43 -89 95 97 0 
 -43 -90 96 98 0 
 -43 -91 97 0 

 c twelfth condition 
12 0 
14 0 
17 0 
28 0 
30 0 
46 0 
